880112
16,11,18,23,58,89,70,33,45,27,10,22,97,53,64,51,42,21,83,91,38,13,80,85,44,86,75,37,49,35,87,82,15,57,81,66,60,14,96,41,34,26,1,2,63,4,84,88,7,52,90,43,54,71,92,61,48,40,5,74,68,17,55,9,76,29,95,20,19,31,59,30,12,62,67,98,79,36,73,69,47,0,8,32,56,46,65,3,6,72,94,24,77,50,39,78,28,93,25
